opt/attic/selection_example.lp
max: -0.3 b_1_1 - 0.2 b_2_1 - b_3_1 - 0.9 b_1_2 - 0.8 b_2_2 - 0.1 b_3_2;

b_1_1 + b_1_2 = 1;
b_2_1 + b_2_2 = 1;
b_3_1 + b_3_2 = 1;
b_1_1 + b_2_1 + b_3_1 - 3 p_1 <= 0;
b_1_2 + b_2_2 + b_3_2 - 3 p_2 <= 0;
p_1 + p_2 <= 1;
-1 b_1_1 <= 0;
-1 b_1_2 <= 0;
-1 b_2_1 <= 0;
-1 b_2_2 <= 0;
-1 b_3_1 <= 0;
-1 b_3_2 <= 0;
b_1_1 <= p_1;
b_2_1 <= p_1;
b_3_1 <= p_1;
b_1_2 <= p_2;
b_2_2 <= p_2;
b_3_2 <= p_2;
p_1 <= 1;
p_2 <= 1;

int b_1_1, b_1_2, b_2_1, b_2_2, b_3_1, b_3_2, p_1, p_2;
