opt/attic/selection_example.out

Value of objective function: -1.50000000

Actual values of the variables:
b_1_1                           1
b_2_1                           1
b_3_1                           1
b_1_2                           0
b_2_2                           0
b_3_2                           0
p_1                             1
p_2                             0
